Set parameter Threads to value 1
Set parameter ConcurrentMIP to value 1
Set parameter MIPGap to value 0.05
Set parameter ConcurrentMIP to value 1
Set parameter MIPGap to value 0.05
Set parameter Threads to value 1
Gurobi Optimizer version 13.0.0 build v13.0.0rc1 (linux64 - "AlmaLinux 9.7 (Moss Jungle Cat)")

CPU model: Intel(R) Xeon(R) CPU E5-2650 v4 @ 2.20GHz, instruction set [SSE2|AVX|AVX2]
Thread count: 24 physical cores, 24 logical processors, using up to 1 threads

Non-default parameters:
MIPGap  0.05
TSPort  4195
Threads  1

Optimize a model with 117444 rows, 2852448 columns and 47506314 nonzeros (Min)
Model fingerprint: 0xdce621e4
Model has 42072 linear objective coefficients
Variable types: 2836248 continuous, 16200 integer (16200 binary)
Coefficient statistics:
  Matrix range     [1e+00, 3e+02]
  Objective range  [8e-02, 1e+00]
  Bounds range     [0e+00, 0e+00]
  RHS range        [1e+00, 3e+02]
Found heuristic solution: objective 18290.557533
Presolve removed 9510 rows and 15300 columns (presolve time = 5s)...
Presolve removed 9510 rows and 15300 columns (presolve time = 11s)...
Presolve removed 33778 rows and 1299301 columns (presolve time = 16s)...
Presolve removed 33778 rows and 1299409 columns (presolve time = 23s)...
Presolve removed 54163 rows and 1299649 columns (presolve time = 26s)...
Presolve removed 54163 rows and 1299649 columns (presolve time = 35s)...
Presolve removed 54163 rows and 1299649 columns (presolve time = 36s)...
Presolve removed 57510 rows and 1299649 columns (presolve time = 41s)...
Presolve removed 57510 rows and 1299649 columns (presolve time = 45s)...
Presolve removed 68880 rows and 1303747 columns (presolve time = 50s)...
Presolve removed 68880 rows and 1303747 columns (presolve time = 55s)...
Presolve removed 68880 rows and 1303747 columns (presolve time = 60s)...
Presolve removed 68880 rows and 1303747 columns (presolve time = 65s)...
Presolve removed 68880 rows and 1303747 columns (presolve time = 70s)...
Presolve removed 75174 rows and 1744245 columns (presolve time = 75s)...
Presolve removed 75368 rows and 1744439 columns (presolve time = 81s)...
Presolve removed 75368 rows and 1744439 columns (presolve time = 85s)...
Presolve removed 75368 rows and 1744439 columns (presolve time = 90s)...
Presolve removed 75368 rows and 1744439 columns (presolve time = 95s)...
Presolve removed 75094 rows and 1744165 columns
Presolve time: 99.09s
Presolved: 42350 rows, 1108283 columns, 11611769 nonzeros
Variable types: 1105319 continuous, 2964 integer (2964 binary)

Root simplex log...

Iteration    Objective       Primal Inf.    Dual Inf.      Time
       0    0.0000000e+00   1.829179e+04   0.000000e+00    118s
   15733    3.3276970e+03   1.947221e+04   0.000000e+00    120s
   36121    3.9813367e+03   1.705587e+04   0.000000e+00    125s
   48692    4.3087021e+03   1.175129e+05   0.000000e+00    130s
   50809    4.3387556e+03   7.913322e+05   0.000000e+00    135s
   52271    4.3387556e+03   3.076879e+06   0.000000e+00    140s
   53301    4.3387557e+03   2.908673e+05   0.000000e+00    145s
   54022    4.3387557e+03   1.454496e+05   0.000000e+00    150s
   55052    4.3441390e+03   7.843571e+05   0.000000e+00    155s
   56600    4.3470308e+03   5.553806e+05   0.000000e+00    160s
   57630    4.3543501e+03   2.800850e+05   0.000000e+00    166s
   58145    4.3543501e+03   2.076973e+05   0.000000e+00    170s
   58763    4.3572845e+03   2.056615e+05   0.000000e+00    176s
   59381    4.3572845e+03   4.017973e+04   0.000000e+00    180s
   60784    4.3934566e+03   1.218383e+05   0.000000e+00    186s
   61932    4.3979566e+03   5.354156e+04   0.000000e+00    190s
   63065    4.3979566e+03   9.618098e+04   0.000000e+00    195s
   64095    4.4068690e+03   1.750292e+05   0.000000e+00    200s
   64713    4.4127488e+03   1.049425e+05   0.000000e+00    205s
   65228    4.4127488e+03   1.421078e+05   0.000000e+00    210s
   65949    4.4127488e+03   4.398242e+05   0.000000e+00    215s
   66567    4.4127488e+03   2.640324e+04   0.000000e+00    220s
   67082    4.4127488e+03   1.097415e+06   0.000000e+00    225s
   67700    4.4161067e+03   1.946899e+05   0.000000e+00    231s
   68318    4.4161067e+03   4.935590e+05   0.000000e+00    236s
   68936    4.4161067e+03   1.668589e+05   0.000000e+00    240s
   69554    4.4197117e+03   9.171733e+05   0.000000e+00    245s
   70378    4.4197117e+03   4.482332e+04   0.000000e+00    251s
   71614    4.4249161e+03   1.672039e+05   0.000000e+00    256s
   72438    4.4249162e+03   7.120558e+04   0.000000e+00    261s
   73571    4.4312606e+03   3.927138e+04   0.000000e+00    265s
   74498    4.4312606e+03   2.277719e+04   0.000000e+00    270s
   75223    4.4352606e+03   3.004803e+05   0.000000e+00    275s
   75841    4.4352607e+03   2.870778e+04   0.000000e+00    280s
   76665    4.4352607e+03   5.532187e+04   0.000000e+00    286s
   77386    4.4352607e+03   3.358502e+04   0.000000e+00    290s
   78416    4.4371283e+03   8.325039e+03   0.000000e+00    295s
   80275    4.5188487e+03   1.199699e+05   0.000000e+00    301s
   81564    4.5586288e+03   1.799825e+04   0.000000e+00    305s
   82285    4.5595271e+03   2.524314e+04   0.000000e+00    311s
   83212    4.5595271e+03   9.749826e+04   0.000000e+00    315s
   83933    4.5601915e+03   4.778414e+04   0.000000e+00    320s
   84551    4.5601915e+03   2.937606e+04   0.000000e+00    326s
   85379    4.5601915e+03   5.393137e+04   0.000000e+00    331s
   86203    4.5601915e+03   6.777763e+04   0.000000e+00    335s
   86924    4.5760974e+03   2.321460e+04   0.000000e+00    340s
   88241    4.5801364e+03   3.491668e+04   0.000000e+00    346s
   88653    4.5801364e+03   1.611583e+04   0.000000e+00    350s
   89786    4.5878553e+03   2.526792e+05   0.000000e+00    356s
   90404    4.5885061e+03   5.726269e+03   0.000000e+00    360s
   91022    4.5885061e+03   1.831314e+04   0.000000e+00    365s
   91640    4.5885062e+03   4.309099e+04   0.000000e+00    370s
   92567    4.5885062e+03   2.345084e+04   0.000000e+00    375s
   93518    4.5896689e+03   1.952151e+04   0.000000e+00    380s
   94564    4.5896689e+03   4.201021e+04   0.000000e+00    385s
   95182    4.5896689e+03   3.526453e+04   0.000000e+00    390s
   95812    4.5896689e+03   3.279614e+03   0.000000e+00    395s
   96601    4.5896689e+03   1.140758e+04   0.000000e+00    400s
   97425    4.5899902e+03   1.809704e+04   0.000000e+00    405s
   97940    4.5899902e+03   5.692842e+04   0.000000e+00    410s
   98558    4.5899902e+03   3.108526e+03   0.000000e+00    415s
   99176    4.5899902e+03   1.743184e+03   0.000000e+00    420s
   99897    4.5904722e+03   1.536462e+03   0.000000e+00    425s
  100515    4.5904722e+03   5.115456e+03   0.000000e+00    431s
  101030    4.5904722e+03   2.489116e+03   0.000000e+00    435s
  101751    4.5904722e+03   1.367620e+03   0.000000e+00    441s
  102266    4.5904722e+03   2.838737e+03   0.000000e+00    445s
  102884    4.5904722e+03   1.256749e+03   0.000000e+00    450s
  103605    4.5904722e+03   8.100726e+02   0.000000e+00    455s
  104223    4.5904722e+03   1.911024e+03   0.000000e+00    461s
  104738    4.5904722e+03   8.775673e+02   0.000000e+00    466s
  105150    4.5904722e+03   1.713466e+01   0.000000e+00    470s
  105601    4.5904682e+03   0.000000e+00   0.000000e+00    475s

Use crossover to convert LP symmetric solution to basic solution...

Root crossover log...

    8198 DPushes remaining with DInf 0.0000000e+00               476s
       0 DPushes remaining with DInf 0.0000000e+00               476s

   11290 PPushes remaining with PInf 0.0000000e+00               476s
       0 PPushes remaining with PInf 0.0000000e+00               477s

  Push phase complete: Pinf 0.0000000e+00, Dinf 3.4101194e-12    477s


Root simplex log...

Iteration    Objective       Primal Inf.    Dual Inf.      Time
  122145    4.5904682e+03   0.000000e+00   0.000000e+00    477s
Crossover time: 1.01 seconds (0.32 work units)
  122145    4.5904682e+03   0.000000e+00   0.000000e+00    477s

Root relaxation: objective 4.590468e+03, 122145 iterations, 371.14 seconds (229.76 work units)

    Nodes    |    Current Node    |     Objective Bounds      |     Work
 Expl Unexpl |  Obj  Depth IntInf | Incumbent    BestBd   Gap | It/Node Time

*    0     0               0    4590.4681667 4590.46817  0.00%     - 1552s

Explored 1 nodes (260658 simplex iterations) in 1552.96 seconds (926.25 work units)
Thread count was 1 (of 24 available processors)

Solution count 2: 4590.47 18290.6 

Optimal solution found (tolerance 5.00e-02)
Best objective 4.590468166667e+03, best bound 4.590468166667e+03, gap 0.0000%

User-callback calls 8677, time in user-callback 0.02 sec
